certificates/rado_a9_c229_N28.cnf
c Rad2 upper bound instance: x1 + 9*x2 - x3 = 229, interval [1,28]
p cnf 28 174
1 6 26 0
-1 -6 -26 0
1 15 27 0
-1 -15 -27 0
1 24 28 0
-1 -24 -28 0
2 7 26 0
-2 -7 -26 0
2 16 27 0
-2 -16 -27 0
2 25 28 0
-2 -25 -28 0
3 8 26 0
-3 -8 -26 0
3 17 27 0
-3 -17 -27 0
3 26 28 0
-3 -26 -28 0
4 9 26 0
-4 -9 -26 0
4 18 27 0
-4 -18 -27 0
4 27 28 0
-4 -27 -28 0
1 5 25 0
-1 -5 -25 0
5 10 26 0
-5 -10 -26 0
5 19 27 0
-5 -19 -27 0
5 28 0
-5 -28 0
2 6 25 0
-2 -6 -25 0
6 11 26 0
-6 -11 -26 0
6 20 27 0
-6 -20 -27 0
3 7 25 0
-3 -7 -25 0
7 12 26 0
-7 -12 -26 0
7 21 27 0
-7 -21 -27 0
4 8 25 0
-4 -8 -25 0
8 13 26 0
-8 -13 -26 0
8 22 27 0
-8 -22 -27 0
5 9 25 0
-5 -9 -25 0
9 14 26 0
-9 -14 -26 0
9 23 27 0
-9 -23 -27 0
6 10 25 0
-6 -10 -25 0
10 15 26 0
-10 -15 -26 0
10 24 27 0
-10 -24 -27 0
7 11 25 0
-7 -11 -25 0
11 16 26 0
-11 -16 -26 0
11 25 27 0
-11 -25 -27 0
8 12 25 0
-8 -12 -25 0
12 17 26 0
-12 -17 -26 0
12 26 27 0
-12 -26 -27 0
9 13 25 0
-9 -13 -25 0
13 18 26 0
-13 -18 -26 0
13 27 0
-13 -27 0
1 14 24 0
-1 -14 -24 0
10 14 25 0
-10 -14 -25 0
14 19 26 0
-14 -19 -26 0
14 27 28 0
-14 -27 -28 0
2 15 24 0
-2 -15 -24 0
11 15 25 0
-11 -15 -25 0
15 20 26 0
-15 -20 -26 0
3 16 24 0
-3 -16 -24 0
12 16 25 0
-12 -16 -25 0
16 21 26 0
-16 -21 -26 0
4 17 24 0
-4 -17 -24 0
13 17 25 0
-13 -17 -25 0
17 22 26 0
-17 -22 -26 0
5 18 24 0
-5 -18 -24 0
14 18 25 0
-14 -18 -25 0
18 23 26 0
-18 -23 -26 0
6 19 24 0
-6 -19 -24 0
15 19 25 0
-15 -19 -25 0
19 24 26 0
-19 -24 -26 0
7 20 24 0
-7 -20 -24 0
16 20 25 0
-16 -20 -25 0
20 25 26 0
-20 -25 -26 0
8 21 24 0
-8 -21 -24 0
17 21 25 0
-17 -21 -25 0
21 26 0
-21 -26 0
9 22 24 0
-9 -22 -24 0
18 22 25 0
-18 -22 -25 0
22 26 27 0
-22 -26 -27 0
1 23 0
-1 -23 0
10 23 24 0
-10 -23 -24 0
19 23 25 0
-19 -23 -25 0
23 26 28 0
-23 -26 -28 0
2 23 24 0
-2 -23 -24 0
11 24 0
-11 -24 0
20 24 25 0
-20 -24 -25 0
3 23 25 0
-3 -23 -25 0
12 24 25 0
-12 -24 -25 0
21 25 0
-21 -25 0
4 23 26 0
-4 -23 -26 0
13 24 26 0
-13 -24 -26 0
22 25 26 0
-22 -25 -26 0
5 23 27 0
-5 -23 -27 0
14 24 27 0
-14 -24 -27 0
23 25 27 0
-23 -25 -27 0
6 23 28 0
-6 -23 -28 0
15 24 28 0
-15 -24 -28 0
24 25 28 0
-24 -25 -28 0
