certificates/rado_a9_c229_N28.drat
-26 -28 0
d -26 -3 -28 0
-27 -28 0
-28 0
5 0
-3 -23 0
d -3 -25 -23 0
26 0
-21 0
-10 0
25 0
-1 0
-9 0
-20 0
-22 0
23 0
24 0
-27 0
-4 0
-3 0
-18 0
-19 0
-11 0
-12 0
-13 0
-2 0
0
